c 
c G(k,n,p) graph
c graph gen seed     : 20932
c number of vertices : 30
c max number of edges: 500
c number of classes  : 2
c edge density       : 0.400000
c edge probability   : 0.800000
c data structure     : sparse
c
c           Graph Stats
c number of vertices  : 30
c nonisolated vertices: 30
c number of edges     : 180
c edge density        : 0.413793
c max degree          : 15
c avg degree          : 12.00
c min degree          : 8
p col 30 180
e 1 28
e 1 27
e 1 23
e 1 22
e 1 21
e 1 20
e 1 16
e 1 14
e 1 11
e 1 5
e 1 4
e 2 22
e 2 19
e 2 17
e 2 16
e 2 14
e 2 11
e 2 9
e 2 5
e 2 4
e 3 28
e 3 27
e 3 23
e 3 22
e 3 21
e 3 20
e 3 19
e 3 17
e 3 16
e 3 14
e 3 11
e 3 9
e 3 5
e 3 4
e 4 29
e 4 26
e 4 25
e 4 24
e 4 15
e 4 13
e 4 12
e 4 10
e 4 8
e 4 7
e 5 30
e 5 29
e 5 26
e 5 25
e 5 24
e 5 18
e 5 13
e 5 12
e 5 10
e 5 8
e 5 7
e 6 28
e 6 23
e 6 22
e 6 20
e 6 16
e 6 14
e 6 11
e 6 9
e 7 28
e 7 27
e 7 23
e 7 22
e 7 21
e 7 20
e 7 19
e 7 17
e 7 16
e 7 14
e 7 11
e 8 28
e 8 27
e 8 23
e 8 22
e 8 20
e 8 17
e 8 16
e 8 9
e 9 29
e 9 25
e 9 24
e 9 18
e 9 15
e 9 13
e 9 10
e 10 28
e 10 23
e 10 22
e 10 21
e 10 20
e 10 19
e 10 17
e 10 16
e 10 11
e 11 30
e 11 29
e 11 26
e 11 25
e 11 24
e 11 18
e 11 15
e 11 13
e 12 27
e 12 23
e 12 22
e 12 21
e 12 20
e 12 19
e 12 17
e 12 14
e 13 28
e 13 27
e 13 23
e 13 21
e 13 19
e 13 17
e 13 16
e 14 30
e 14 29
e 14 25
e 14 18
e 14 15
e 15 27
e 15 21
e 15 19
e 15 16
e 16 30
e 16 29
e 16 26
e 16 25
e 16 24
e 16 18
e 17 29
e 17 26
e 17 25
e 17 24
e 17 18
e 18 28
e 18 27
e 18 23
e 18 22
e 18 20
e 18 19
e 19 30
e 19 29
e 19 26
e 19 25
e 20 30
e 20 29
e 20 26
e 20 25
e 21 30
e 21 29
e 21 26
e 21 25
e 21 24
e 22 30
e 22 29
e 22 26
e 22 25
e 22 24
e 23 30
e 23 29
e 23 26
e 23 25
e 23 24
e 24 28
e 24 27
e 25 28
e 25 27
e 26 28
e 26 27
e 27 30
e 27 29
e 28 30
e 28 29
